db/inputs/27799155141721340763116816028596728093.smt2
(set-logic QF_FP)
(declare-const x0 (_ FloatingPoint 8 24))
(declare-const x1 (_ FloatingPoint 8 24))
(declare-const x2 (_ FloatingPoint 8 24))
(declare-const x3 (_ FloatingPoint 8 24))
(declare-const x4 (_ FloatingPoint 8 24))
(declare-const x5 (_ FloatingPoint 8 24))
(declare-const x6 (_ FloatingPoint 8 24))
(declare-const x7 (_ FloatingPoint 8 24))
(declare-const x8 (_ FloatingPoint 8 24))
(declare-const x9 (_ FloatingPoint 8 24))
(declare-const x10 (_ FloatingPoint 8 24))
(assert (fp.eq (fp.sub RNE (fp.mul RNE x6 x10) (fp.neg x4)) (fp.div RNE (fp.div RNE x3 x7) (fp.div RNE x9 x8))))
(assert (fp.eq (fp.add RNE (fp.mul RNE x5 x7) (fp.sub RNE x9 x9)) (fp.mul RNE (fp.div RNE x3 x10) (fp.add RNE x2 x5))))
(assert (fp.gt (fp.neg (fp.sub RNE x8 x3)) (fp.mul RNE (fp.div RNE x7 x4) (fp.neg x9))))
(check-sat)
