db/data/27799155141721340763116816028596728093.z3.out
sat
-------------------
34.752887929
